(set-info :smt-lib-version 2.6)
(set-logic LIA)
(set-info
  :source |
 Generated by PSyCO 0.1
 More info in N. P. Lopes and J. Monteiro. Weakest Precondition Synthesis for
 Compiler Optimizations, VMCAI'14.
|)
(set-info :category "industrial")
(set-info :status sat)
(declare-fun R_E1_V4 () Bool)
(declare-fun W_S1_V4 () Bool)
(declare-fun R_E1_V5 () Bool)
(declare-fun W_S1_V5 () Bool)
(declare-fun W_S2_V5 () Bool)
(declare-fun W_S2_V2 () Bool)
(declare-fun W_S2_V3 () Bool)
(declare-fun W_S2_V1 () Bool)
(declare-fun R_S2_V4 () Bool)
(declare-fun R_S2_V5 () Bool)
(declare-fun R_S2_V2 () Bool)
(declare-fun R_S2_V3 () Bool)
(declare-fun R_S2_V1 () Bool)
(declare-fun R_S1_V1 () Bool)
(declare-fun R_S1_V4 () Bool)
(declare-fun R_S1_V5 () Bool)
(declare-fun R_S1_V2 () Bool)
(declare-fun R_S1_V3 () Bool)
(declare-fun R_E1_V2 () Bool)
(declare-fun DISJ_W_S2_R_E1 () Bool)
(declare-fun DISJ_W_S2_R_S2 () Bool)
(declare-fun DISJ_W_S2_R_S1 () Bool)
(declare-fun DISJ_W_S1_W_S2 () Bool)
(declare-fun R_E1_V3 () Bool)
(declare-fun DISJ_W_S1_R_S2 () Bool)
(declare-fun DISJ_W_S1_R_S1 () Bool)
(declare-fun W_S2_V4 () Bool)
(declare-fun W_S1_V3 () Bool)
(declare-fun W_S1_V2 () Bool)
(declare-fun W_S1_V1 () Bool)
(declare-fun R_E1_V1 () Bool)
(declare-fun DISJ_W_S1_R_E1 () Bool)
(assert
 (let (($x51 (and W_S1_V4 R_E1_V4)))
 (let (($x2556 (not $x51)))
 (let (($x49 (and W_S1_V5 R_E1_V5)))
 (let (($x3096 (not $x49)))
 (let
 (($x3005
   (forall
    ((V3_0 Int) (V2_0 Int) 
     (V5_0 Int) (V4_0 Int) 
     (MW_S1_V1 Bool) (MW_S1_V3 Bool) 
     (MW_S1_V2 Bool) (MW_S1_V5 Bool) 
     (MW_S1_V4 Bool) (MW_S2_V1 Bool) 
     (MW_S2_V3 Bool) (MW_S2_V2 Bool) 
     (MW_S2_V5 Bool) (MW_S2_V4 Bool) 
     (S1_V1_!1516 Int) (S1_V1_!1521 Int) 
     (S1_V1_!1533 Int) (S2_V5_!1530 Int) 
     (S2_V5_!1541 Int) (S1_V3_!1517 Int) 
     (S1_V3_!1522 Int) (S1_V3_!1534 Int) 
     (S1_V2_!1518 Int) (S1_V2_!1523 Int) 
     (S1_V2_!1535 Int) (E1_!1515 Int) 
     (E1_!1526 Int) (E1_!1532 Int) 
     (S2_V4_!1531 Int) (S2_V4_!1542 Int) 
     (S1_V5_!1519 Int) (S1_V5_!1524 Int) 
     (S1_V5_!1536 Int) (S2_V1_!1527 Int) 
     (S2_V1_!1538 Int) (S1_V4_!1520 Int) 
     (S1_V4_!1525 Int) (S1_V4_!1537 Int) 
     (S2_V2_!1529 Int) (S2_V2_!1540 Int) 
     (S2_V3_!1528 Int) (S2_V3_!1539 Int))
    (let ((?x2600 (ite MW_S1_V4 S1_V4_!1537 V4_0)))
    (let ((?x2598 (ite MW_S2_V4 S2_V4_!1542 ?x2600)))
    (let ((?x2603 (ite MW_S1_V4 S1_V4_!1525 V4_0)))
    (let ((?x2595 (ite MW_S2_V4 S2_V4_!1531 ?x2603)))
    (let (($x2498 (= ?x2595 ?x2598)))
    (let ((?x2475 (ite MW_S1_V5 S1_V5_!1536 V5_0)))
    (let ((?x2819 (ite MW_S2_V5 S2_V5_!1541 ?x2475)))
    (let ((?x2604 (ite MW_S1_V5 S1_V5_!1524 V5_0)))
    (let ((?x2660 (ite MW_S2_V5 S2_V5_!1530 ?x2604)))
    (let (($x3444 (= ?x2660 ?x2819)))
    (let ((?x2295 (ite MW_S1_V2 S1_V2_!1535 V2_0)))
    (let ((?x3357 (ite MW_S2_V2 S2_V2_!1540 ?x2295)))
    (let ((?x2759 (ite MW_S1_V2 S1_V2_!1523 V2_0)))
    (let ((?x2847 (ite MW_S2_V2 S2_V2_!1529 ?x2759)))
    (let (($x2812 (= ?x2847 ?x3357)))
    (let ((?x3315 (ite MW_S1_V3 S1_V3_!1534 V3_0)))
    (let ((?x2581 (ite MW_S2_V3 S2_V3_!1539 ?x3315)))
    (let ((?x2985 (ite MW_S1_V3 S1_V3_!1522 V3_0)))
    (let ((?x3438 (ite MW_S2_V3 S2_V3_!1528 ?x2985)))
    (let (($x2850 (= ?x3438 ?x2581)))
    (let ((?x3104 (ite MW_S1_V1 S1_V1_!1533 E1_!1532)))
    (let ((?x3373 (ite MW_S2_V1 S2_V1_!1538 ?x3104)))
    (let ((?x2875 (ite MW_S2_V1 S2_V1_!1527 E1_!1526)))
    (let (($x3007 (= ?x2875 ?x3373)))
    (let (($x3456 (and $x3007 $x2850 $x2812 $x3444 $x2498)))
    (let ((?x3414 (+ (- 1) ?x3357)))
    (let (($x2615 (>= ?x3373 ?x3414)))
    (let (($x3326 (<= V2_0 E1_!1532)))
    (let (($x3442 (not $x3326)))
    (let ((?x3309 (+ (- 1) ?x2847)))
    (let (($x2491 (>= ?x2875 ?x3309)))
    (let (($x3340 (<= ?x2759 E1_!1526)))
    (let (($x2905 (not $x3340)))
    (let ((?x2643 (+ (- 1) ?x2759)))
    (let ((?x2715 (ite MW_S1_V1 S1_V1_!1516 E1_!1515)))
    (let ((?x2716 (+ 1 ?x2715)))
    (let ((?x3228 (ite MW_S1_V1 S1_V1_!1521 ?x2716)))
    (let (($x2711 (>= ?x3228 ?x2643)))
    (let ((?x2537 (ite MW_S1_V2 S1_V2_!1518 V2_0)))
    (let (($x2889 (<= ?x2537 ?x2716)))
    (let (($x2440 (not $x2889)))
    (let (($x2710 (<= V2_0 E1_!1515)))
    (let (($x2529 (not $x2710)))
    (let (($x2871 (and $x2529 $x2440 $x2711 $x2905 $x2491 $x3442 $x2615)))
    (let (($x2482 (not $x2871)))
    (let (($x2695 (not MW_S2_V5)))
    (let (($x2601 (or $x2695 W_S2_V5)))
    (let (($x2666 (not MW_S2_V2)))
    (let (($x2594 (or $x2666 W_S2_V2)))
    (let (($x2291 (not MW_S2_V3)))
    (let (($x2669 (or $x2291 W_S2_V3)))
    (let (($x2844 (not MW_S2_V1)))
    (let (($x3180 (or $x2844 W_S2_V1)))
    (let (($x2654 (not MW_S1_V4)))
    (let (($x2769 (or $x2654 W_S1_V4)))
    (let (($x2677 (not MW_S1_V5)))
    (let (($x2479 (or $x2677 W_S1_V5)))
    (let (($x2299 (not MW_S1_V2)))
    (let (($x2477 (not MW_S1_V1)))
    (let (($x2895 (= S2_V3_!1528 S2_V3_!1539)))
    (let (($x2957 (= ?x2603 ?x2600)))
    (let (($x407 (not R_S2_V4)))
    (let (($x2550 (or $x407 $x2957)))
    (let (($x3428 (= ?x2604 ?x2475)))
    (let (($x405 (not R_S2_V5)))
    (let (($x2998 (or $x405 $x3428)))
    (let (($x3374 (= ?x2759 ?x2295)))
    (let (($x403 (not R_S2_V2)))
    (let (($x3507 (or $x403 $x3374)))
    (let (($x2891 (= ?x2985 ?x3315)))
    (let (($x401 (not R_S2_V3)))
    (let (($x3121 (or $x401 $x2891)))
    (let (($x2863 (= E1_!1526 ?x3104)))
    (let (($x398 (not R_S2_V1)))
    (let (($x2293 (or $x398 $x2863)))
    (let (($x3043 (and $x2293 $x3121 $x3507 $x2998 $x2550)))
    (let (($x3464 (not $x3043)))
    (let (($x3468 (or $x3464 $x2895)))
    (let (($x2431 (= S2_V2_!1529 S2_V2_!1540)))
    (let (($x2949 (or $x3464 $x2431)))
    (let (($x2834 (= S1_V4_!1537 S1_V4_!1520)))
    (let (($x2865 (= E1_!1532 E1_!1515)))
    (let (($x198 (not R_S1_V1)))
    (let (($x2748 (or $x198 $x2865)))
    (let (($x2486 (not $x2748)))
    (let (($x2655 (or $x2486 $x2834)))
    (let (($x2662 (= S1_V4_!1525 S1_V4_!1537)))
    (let ((?x2757 (ite MW_S1_V4 S1_V4_!1520 V4_0)))
    (let (($x2876 (= ?x2757 V4_0)))
    (let (($x206 (not R_S1_V4)))
    (let (($x2532 (or $x206 $x2876)))
    (let ((?x2751 (ite MW_S1_V5 S1_V5_!1519 V5_0)))
    (let (($x2853 (= ?x2751 V5_0)))
    (let (($x204 (not R_S1_V5)))
    (let (($x2792 (or $x204 $x2853)))
    (let (($x2868 (= ?x2537 V2_0)))
    (let (($x202 (not R_S1_V2)))
    (let (($x2648 (or $x202 $x2868)))
    (let ((?x2447 (ite MW_S1_V3 S1_V3_!1517 V3_0)))
    (let (($x2877 (= ?x2447 V3_0)))
    (let (($x200 (not R_S1_V3)))
    (let (($x2642 (or $x200 $x2877)))
    (let ((?x2473 (+ (- 1) E1_!1532)))
    (let (($x2797 (= ?x2715 ?x2473)))
    (let (($x2663 (or $x198 $x2797)))
    (let (($x2533 (and $x2663 $x2642 $x2648 $x2792 $x2532)))
    (let (($x2879 (not $x2533)))
    (let (($x2866 (or $x2879 $x2662)))
    (let (($x2766 (= S1_V4_!1525 S1_V4_!1520)))
    (let ((?x2778 (+ (- 1) E1_!1515)))
    (let (($x2466 (= ?x2715 ?x2778)))
    (let (($x2451 (or $x198 $x2466)))
    (let (($x2741 (and $x2451 $x2642 $x2648 $x2792 $x2532)))
    (let (($x2499 (not $x2741)))
    (let (($x2881 (or $x2499 $x2766)))
    (let (($x2723 (= S2_V1_!1527 S2_V1_!1538)))
    (let (($x3181 (or $x3464 $x2723)))
    (let (($x2539 (= S1_V5_!1536 S1_V5_!1524)))
    (let (($x2542 (= V4_0 ?x2757)))
    (let (($x2903 (or $x206 $x2542)))
    (let (($x2535 (= V5_0 ?x2751)))
    (let (($x2443 (or $x204 $x2535)))
    (let (($x2744 (= V2_0 ?x2537)))
    (let (($x2856 (or $x202 $x2744)))
    (let (($x2721 (= V3_0 ?x2447)))
    (let (($x2791 (or $x200 $x2721)))
    (let (($x2701 (= E1_!1532 ?x2716)))
    (let (($x3264 (or $x198 $x2701)))
    (let (($x2689 (and $x3264 $x2791 $x2856 $x2443 $x2903)))
    (let (($x3334 (not $x2689)))
    (let (($x2763 (or $x3334 $x2539)))
    (let (($x2461 (= S1_V5_!1536 S1_V5_!1519)))
    (let (($x2724 (or $x2486 $x2461)))
    (let (($x2474 (= S1_V5_!1519 S1_V5_!1524)))
    (let (($x2585 (= E1_!1515 ?x2716)))
    (let (($x3294 (or $x198 $x2585)))
    (let (($x2835 (and $x3294 $x2791 $x2856 $x2443 $x2903)))
    (let (($x3054 (not $x2835)))
    (let (($x2841 (or $x3054 $x2474)))
    (let (($x2563 (= S2_V4_!1542 S2_V4_!1531)))
    (let (($x3393 (= ?x2600 ?x2603)))
    (let (($x3399 (or $x407 $x3393)))
    (let (($x3356 (= ?x2475 ?x2604)))
    (let (($x3300 (or $x405 $x3356)))
    (let (($x3368 (= ?x2295 ?x2759)))
    (let (($x3325 (or $x403 $x3368)))
    (let (($x2627 (= ?x3315 ?x2985)))
    (let (($x3505 (or $x401 $x2627)))
    (let (($x2991 (= ?x3104 E1_!1526)))
    (let (($x2902 (or $x398 $x2991)))
    (let (($x2966 (and $x2902 $x3505 $x3325 $x3300 $x3399)))
    (let (($x2804 (not $x2966)))
    (let (($x2814 (or $x2804 $x2563)))
    (let (($x3285 (= E1_!1526 E1_!1532)))
    (let (($x3328 (= ?x2603 V4_0)))
    (let (($x161 (not R_E1_V4)))
    (let (($x3292 (or $x161 $x3328)))
    (let (($x3509 (= ?x2604 V5_0)))
    (let (($x159 (not R_E1_V5)))
    (let (($x3376 (or $x159 $x3509)))
    (let (($x3032 (= ?x2759 V2_0)))
    (let (($x157 (not R_E1_V2)))
    (let (($x2931 (or $x157 $x3032)))
    (let (($x2946 (and $x2931 $x3376 $x3292)))
    (let (($x2638 (not $x2946)))
    (let (($x2782 (or $x2638 $x3285)))
    (let (($x3378 (= E1_!1526 E1_!1515)))
    (let (($x3282 (or $x2638 $x3378)))
    (let (($x3193 (= S1_V2_!1535 S1_V2_!1523)))
    (let (($x2967 (or $x3334 $x3193)))
    (let (($x2636 (= S1_V2_!1535 S1_V2_!1518)))
    (let (($x2650 (or $x2486 $x2636)))
    (let (($x2830 (= S1_V2_!1518 S1_V2_!1523)))
    (let (($x2821 (or $x3054 $x2830)))
    (let (($x3391 (= S1_V3_!1534 S1_V3_!1522)))
    (let (($x2925 (or $x3334 $x3391)))
    (let (($x2768 (= S1_V3_!1517 S1_V3_!1534)))
    (let (($x2907 (= E1_!1515 E1_!1532)))
    (let (($x2904 (or $x198 $x2907)))
    (let (($x2872 (not $x2904)))
    (let (($x2464 (or $x2872 $x2768)))
    (let (($x2837 (= S1_V3_!1517 S1_V3_!1522)))
    (let (($x2874 (or $x3054 $x2837)))
    (let (($x2444 (= S2_V5_!1530 S2_V5_!1541)))
    (let (($x3002 (or $x3464 $x2444)))
    (let (($x2649 (= S1_V1_!1533 S1_V1_!1521)))
    (let (($x2846 (or $x3334 $x2649)))
    (let (($x3117 (= S1_V1_!1516 S1_V1_!1533)))
    (let (($x2587 (or $x2872 $x3117)))
    (let (($x2979 (= S1_V1_!1516 S1_V1_!1521)))
    (let (($x2864 (or $x3054 $x2979)))
    (let
    (($x3060
      (and $x2864 $x2587 $x2846 $x3002 $x2874 $x2464 $x2925 $x2821 $x2650
      $x2967 $x3282 $x2782 $x2865 $x2814 $x2841 $x2724 $x2763 $x3181 $x2881
      $x2866 $x2655 $x2949 $x3468 $x2477 $x2299 $x2479 $x2769 $x3180 $x2669
      $x2594 $x2601)))
    (let (($x3093 (not $x3060))) (or $x3093 $x2482 $x3456)))))))))))))))))))))))))))))))))))))))))))))))))))))))))))))))))))))))))))))))))))))))))))))))))))))))))))))))))))))))))))))))))))))))))))))))))))))))))))))))))))))))))))))))))))))))))))))))))))))
 (let (($x90 (and W_S2_V5 R_E1_V5)))
 (let (($x89 (and W_S2_V2 R_E1_V2)))
 (let (($x3165 (or $x89 $x90 R_E1_V4)))
 (let (($x2607 (not $x3165)))
 (let (($x2959 (= DISJ_W_S2_R_E1 $x2607)))
 (let (($x81 (and W_S2_V5 R_S2_V5)))
 (let (($x80 (and W_S2_V2 R_S2_V2)))
 (let (($x79 (and W_S2_V3 R_S2_V3)))
 (let (($x78 (and W_S2_V1 R_S2_V1)))
 (let (($x113 (or $x78 $x79 $x80 $x81 R_S2_V4)))
 (let (($x114 (not $x113)))
 (let (($x115 (= DISJ_W_S2_R_S2 $x114)))
 (let (($x72 (and W_S2_V5 R_S1_V5)))
 (let (($x71 (and W_S2_V2 R_S1_V2)))
 (let (($x70 (and W_S2_V3 R_S1_V3)))
 (let (($x69 (and W_S2_V1 R_S1_V1)))
 (let (($x110 (or $x69 $x70 $x71 $x72 R_S1_V4)))
 (let (($x111 (not $x110)))
 (let (($x112 (= DISJ_W_S2_R_S1 $x111)))
 (let (($x63 (and W_S1_V5 W_S2_V5)))
 (let (($x2591 (or W_S2_V3 $x63 W_S1_V4)))
 (let (($x2573 (not $x2591)))
 (let (($x2790 (= DISJ_W_S1_W_S2 $x2573)))
 (let (($x155 (not R_E1_V3)))
 (let (($x37 (and W_S1_V4 R_S2_V4)))
 (let (($x35 (and W_S1_V5 R_S2_V5)))
 (let (($x3106 (or R_S2_V3 $x35 $x37)))
 (let (($x2945 (not $x3106)))
 (let (($x2755 (= DISJ_W_S1_R_S2 $x2945)))
 (let (($x23 (and W_S1_V4 R_S1_V4)))
 (let (($x20 (and W_S1_V5 R_S1_V5)))
 (let (($x3426 (or R_S1_V3 $x20 $x23)))
 (let (($x2678 (not $x3426)))
 (let (($x3070 (= DISJ_W_S1_R_S1 $x2678)))
 (let (($x2350 (not W_S1_V2)))
 (let (($x2301 (not W_S1_V1)))
 (let (($x153 (not R_E1_V1)))
 (and DISJ_W_S1_R_E1 $x153 $x2301 $x2350 W_S1_V3 W_S2_V4 $x3070 $x2755 $x155
 $x2790 $x112 $x115 $x2959 $x3005 $x3096 $x2556))))))))))))))))))))))))))))))))))))))))))))
(assert
 (let (($x2387 (not W_S2_V2)))
 (let (($x3184 (and $x2387 DISJ_W_S2_R_S1 DISJ_W_S1_R_S1))) (not $x3184))))
(check-sat)
(exit)

